cases/pglib-opf/pglib_opf_case30_ieee.m
ipopt
ACR
[info | PowerModels]: removing 3 cost terms from generator 4: Float64[]
[info | PowerModels]: removing 1 cost terms from generator 1: [1842.1527999999998, 0.0]
[info | PowerModels]: removing 3 cost terms from generator 5: Float64[]
[info | PowerModels]: removing 1 cost terms from generator 2: [5218.2254, 0.0]
[info | PowerModels]: removing 3 cost terms from generator 6: Float64[]
[info | PowerModels]: removing 3 cost terms from generator 3: Float64[]

******************************************************************************
This program contains Ipopt, a library for large-scale nonlinear optimization.
 Ipopt is released as open source code under the Eclipse Public License (EPL).
         For more information visit http://projects.coin-or.org/Ipopt
******************************************************************************

This is Ipopt version 3.13.2, running with linear solver mumps.
NOTE: Other linear solvers might be more efficient (see Ipopt documentation).

Number of nonzeros in equality constraint Jacobian...:     1841
Number of nonzeros in inequality constraint Jacobian.:      940
Number of nonzeros in Lagrangian Hessian.............:     1516

Total number of variables............................:      232
                     variables with only lower bounds:        0
                variables with lower and upper bounds:      232
                     variables with only upper bounds:        0
Total number of equality constraints.................:      225
Total number of inequality constraints...............:      224
        inequality constraints with only lower bounds:       71
   inequality constraints with lower and upper bounds:        0
        inequality constraints with only upper bounds:      153

iter    objective    inf_pr   inf_du lg(mu)  ||d||  lg(rg) alpha_du alpha_pr  ls
   0  6.6429132e+01 9.42e-01 1.81e+01  -1.0 0.00e+00    -  0.00e+00 0.00e+00   0
   1  7.3720952e+03 1.93e-01 1.36e+02  -1.0 1.73e+00    -  5.87e-03 7.95e-01H  1
   2  7.0345096e+03 7.73e-02 5.46e+01  -1.0 1.62e+00    -  2.06e-02 6.00e-01f  1
   3  7.0526557e+03 7.49e-02 5.32e+01  -1.0 8.07e-01    -  9.67e-01 3.17e-02h  1
   4  8.2376889e+03 1.09e-03 1.71e+00  -1.0 3.24e-01    -  1.00e+00 1.00e+00h  1
   5  8.2474339e+03 1.37e-05 1.48e-01  -1.0 1.25e-02    -  1.00e+00 1.00e+00h  1
   6  8.2248122e+03 7.71e-05 8.25e-01  -2.5 1.94e-02    -  7.77e-01 9.62e-01f  1
   7  8.2103144e+03 1.35e-04 4.11e+00  -2.5 3.18e-02    -  9.16e-01 7.60e-01f  1
   8  8.2094963e+03 2.33e-05 8.11e-01  -2.5 3.39e-02    -  1.00e+00 8.81e-01h  1
   9  8.2096180e+03 1.24e-06 1.15e-02  -2.5 4.60e-03    -  1.00e+00 1.00e+00f  1
iter    objective    inf_pr   inf_du lg(mu)  ||d||  lg(rg) alpha_du alpha_pr  ls
  10  8.2085268e+03 4.84e-06 9.94e-04  -3.8 8.99e-03    -  1.00e+00 1.00e+00f  1
  11  8.2085153e+03 7.96e-06 1.70e+01  -5.7 1.28e-03    -  8.62e-01 4.60e-01h  1
  12  8.2085143e+03 1.47e-06 1.50e-02  -5.7 1.52e-03    -  1.00e+00 1.00e+00h  1
  13  8.2085159e+03 5.95e-08 7.51e-05  -5.7 4.55e-04    -  1.00e+00 1.00e+00h  1
  14  8.2085160e+03 2.00e-09 5.24e-06  -5.7 2.41e-04    -  1.00e+00 1.00e+00h  1
  15  8.2085154e+03 4.99e-09 1.12e-03  -8.6 8.98e-05    -  9.80e-01 9.88e-01h  1
  16  8.2085154e+03 3.73e-09 6.60e+00  -8.6 1.24e-05    -  1.00e+00 2.50e-01f  3
  17  8.2085154e+03 3.14e-12 5.43e-09  -8.6 9.54e-06    -  1.00e+00 1.00e+00h  1

Number of Iterations....: 17

                                   (scaled)                 (unscaled)
Objective...............:   1.5730473115730348e+02    8.2085154366521238e+03
Dual infeasibility......:   5.4341246298530948e-09    2.8356487170265017e-07
Constraint violation....:   3.1429303604113557e-12    3.1429303604113557e-12
Complementarity.........:   2.5849115857633366e-09    1.3488651293584521e-07
Overall NLP error.......:   5.4341246298530948e-09    2.8356487170265017e-07


Number of objective function evaluations             = 21
Number of objective gradient evaluations             = 18
Number of equality constraint evaluations            = 21
Number of inequality constraint evaluations          = 21
Number of equality constraint Jacobian evaluations   = 18
Number of inequality constraint Jacobian evaluations = 18
Number of Lagrangian Hessian evaluations             = 17
Total CPU secs in IPOPT (w/o function evaluations)   =      0.281
Total CPU secs in NLP function evaluations           =      0.210

EXIT: Optimal Solution Found.
Time to Solution........:1.1975030899047852
